n_res = 4;
rc = [ 45, 32, 46, 34 ];
n_tasks = 30;
d = [ 4, 9, 5, 9, 7, 8, 10, 8, 9, 2, 8, 6, 6, 1, 1, 9, 10, 7, 7, 2, 1, 2, 9, 3, 2, 9, 10, 8, 5, 5 ];
rr = [| 4, 8, 2, 3, 8, 4, 4, 5, 8, 7, 6, 3, 10, 8, 9, 2, 10, 8, 5, 9, 3, 2, 5, 10, 4, 8, 3, 4, 4, 5
      | 8, 3, 9, 3, 8, 8, 1, 7, 4, 3, 4, 6, 9, 9, 3, 6, 10, 2, 8, 10, 7, 5, 7, 3, 10, 5, 7, 4, 4, 9
      | 7, 8, 1, 9, 5, 9, 10, 4, 8, 4, 8, 2, 8, 5, 5, 7, 9, 9, 2, 8, 6, 3, 9, 3, 4, 3, 3, 9, 8, 2
      | 10, 10, 8, 3, 7, 1, 10, 10, 6, 5, 2, 6, 2, 10, 2, 1, 7, 7, 5, 9, 4, 2, 9, 7, 1, 1, 5, 9, 5, 2 |];
suc = [ { 2 }, 
        { 1 }, 
        { 4 }, 
        { 3 }, 
        { 6 }, 
        { 5 }, 
        { 8 }, 
        { 7 }, 
        { 10 }, 
        { 9 }, 
        { 12 }, 
        { 11 }, 
        { 14 }, 
        { 13 }, 
        { 16 }, 
        { 15 }, 
        { 18 }, 
        { 17 }, 
        { 20 }, 
        { 19 }, 
        { 22 }, 
        { 21 }, 
        { 24 }, 
        { 23 }, 
        { 26 }, 
        { 25 }, 
        { 28 }, 
        { 27 }, 
        { 30 }, 
        { 29 }]; 
